3 3 2
25 1 83 0 41 1 19 2 132 0 124 1 46 0 172 1 195 0 60 2 75 1 102 0 22 2 90 1 7 0 142 2 184 0 111 2 109 0 4 2 113 0 64 1 197 0 173 2 109 1 152 
25 0 135 1 192 2 44 0 17 1 122 0 61 2 149 0 185 2 42 1 119 0 10 2 172 0 119 1 94 2 101 1 135 2 185 0 196 1 99 2 171 1 164 0 36 1 159 0 131 2 106 
25 1 41 0 73 1 147 2 115 0 172 1 124 2 160 0 27 2 160 0 171 1 166 2 54 1 40 2 27 1 71 0 57 2 103 0 168 1 150 2 130 0 96 1 167 0 5 1 45 2 18 

-------------
